200
100
100
100
99
99
99
98
98
97
96
95
95
93
93
93
91
90
90
88
88
87
84
82
82
81
81
81
81
81
81
80
80
79
79
78
78
77
77
77
77
76
75
75
74
73
73
72
71
71
71
70
70
70
69
67
66
66
66
66
66
65
65
65
64
64
63
59
59
59
59
58
58
56
56
54
54
53
53
53
51
51
51
51
50
49
48
48
48
48
47
47
47
47
46
46
46
46
46
46
46
46
46
46
45
44
44
44
43
41
41
40
40
40
39
39
39
38
36
36
35
34
34
34
33
33
33
32
32
32
32
31
31
31
30
30
29
28
28
27
27
27
26
25
25
24
24
23
23
22
22
22
22
21
21
21
20
19
19
18
16
16
16
15
15
15
15
15
15
14
13
13
13
12
12
12
12
11
10
10
10
9
9
9
8
8
8
8
7
7
7
7
7
5
5
4
3
3
3
2
2
2
